tsp_instances/TSP20/instance14.tsp
NODE_COORD_SECTION
0 109 131
1 66 200
2 122 126
3 62 73
4 57 119
5 23 43
6 135 36
7 151 152
8 200 164
9 39 61
10 168 76
11 120 120
12 59 81
13 25 165
14 57 102
15 71 183
16 9 17
17 140 189
18 149 6
19 153 41
