tsp_instances/TSP20/instance14.opt.tour
TOUR_SECTION
1
3
12
11
20
7
19
17
6
10
4
13
15
5
14
2
16
18
9
8
-1